p cnf 267 1970
64 90 124 139 148 0
109 111 123 128 129 138 0
107 118 140 0
53 101 134 0
117 176 203 0
75 84 136 205 0
72 76 79 0
73 89 102 126 145 0
146 154 162 163 0
92 167 168 210 0
115 143 169 180 218 0
142 183 0
157 185 186 231 0
17 91 94 172 0
132 178 0
86 97 0
152 160 0
65 69 70 166 0
61 63 108 125 0
55 59 112 121 0
147 181 0
52 54 0
49 100 170 0
39 40 41 44 47 0
34 37 85 133 0
33 74 78 80 83 0
30 32 71 87 0
67 159 164 0
28 119 179 0
25 27 58 137 0
21 51 105 150 156 0
16 19 48 98 0
14 15 43 45 0
13 36 0
11 77 82 0
10 187 188 0
153 190 191 0
161 192 193 0
66 194 195 0
113 197 0
171 198 0
131 177 200 0
35 38 42 106 201 0
88 175 202 204 0
31 103 127 0
165 206 208 0
209 211 213 215 0
26 144 216 219 221 0
151 158 222 251 259 0
20 22 99 223 225 0
18 95 141 173 226 228 0
46 184 229 232 0
23 233 0
-128 -139 0
-139 -234 0
-118 -139 0
-101 -139 0
-128 -234 0
-118 -128 0
-101 -128 0
-118 -234 0
-101 -234 0
-101 -118 0
-79 -89 0
-79 -146 0
-79 -167 0
-79 -169 0
-89 -146 0
-89 -167 0
-89 -169 0
-146 -167 0
-146 -169 0
-167 -169 0
-235 -236 0
-63 -235 0
-112 -235 0
-181 -235 0
-235 -237 0
-63 -236 0
-112 -236 0
-181 -236 0
-236 -237 0
-63 -112 0
-63 -181 0
-63 -237 0
-112 -181 0
-112 -237 0
-181 -237 0
-83 -85 0
-32 -85 0
-85 -238 0
-85 -159 0
-85 -239 0
-32 -83 0
-83 -238 0
-83 -159 0
-83 -239 0
-32 -238 0
-32 -159 0
-32 -239 0
-159 -238 0
-238 -239 0
-159 -239 0
-156 -240 0
-19 -240 0
-227 -240 0
-15 -240 0
-10 -240 0
-19 -156 0
-156 -227 0
-15 -156 0
-10 -156 0
-19 -227 0
-15 -19 0
-10 -19 0
-15 -227 0
-10 -227 0
-10 -15 0
-106 -200 0
-135 -200 0
-106 -135 0
-79 -139 0
-139 -235 0
-85 -139 0
-139 -240 0
-139 -200 0
-79 -235 0
-79 -85 0
-79 -240 0
-79 -200 0
-85 -235 0
-235 -240 0
-200 -235 0
-85 -240 0
-85 -200 0
-200 -240 0
-89 -128 0
-128 -236 0
-83 -128 0
-128 -156 0
-106 -128 0
-89 -236 0
-83 -89 0
-89 -156 0
-89 -106 0
-83 -236 0
-156 -236 0
-106 -236 0
-83 -156 0
-83 -106 0
-106 -156 0
-146 -234 0
-63 -234 0
-32 -234 0
-19 -234 0
-135 -234 0
-63 -146 0
-32 -146 0
-19 -146 0
-135 -146 0
-32 -63 0
-19 -63 0
-63 -135 0
-19 -32 0
-32 -135 0
-19 -135 0
-118 -167 0
-112 -118 0
-118 -238 0
-118 -227 0
-112 -167 0
-167 -238 0
-167 -227 0
-112 -238 0
-112 -227 0
-227 -238 0
-101 -169 0
-101 -181 0
-101 -159 0
-15 -101 0
-169 -181 0
-159 -169 0
-15 -169 0
-159 -181 0
-15 -181 0
-15 -159 0
-237 -239 0
-10 -237 0
-10 -239 0
-109 -148 0
-148 -176 0
-148 -205 0
-109 -176 0
-109 -205 0
-176 -205 0
-17 -24 0
-24 -241 0
-24 -166 0
-17 -241 0
-17 -166 0
-166 -241 0
-196 -242 0
-121 -196 0
-100 -196 0
-47 -196 0
-121 -242 0
-100 -242 0
-47 -242 0
-100 -121 0
-47 -121 0
-47 -100 0
-37 -80 0
-37 -104 0
-37 -179 0
-37 -137 0
-80 -104 0
-80 -179 0
-80 -137 0
-104 -179 0
-104 -137 0
-137 -179 0
-150 -217 0
-174 -217 0
-82 -217 0
-190 -217 0
-150 -174 0
-82 -150 0
-150 -190 0
-82 -174 0
-174 -190 0
-82 -190 0
-24 -148 0
-148 -196 0
-37 -148 0
-148 -217 0
-24 -196 0
-24 -37 0
-24 -217 0
-37 -196 0
-196 -217 0
-37 -217 0
-17 -109 0
-109 -242 0
-80 -109 0
-109 -150 0
-17 -242 0
-17 -80 0
-17 -150 0
-80 -242 0
-150 -242 0
-80 -150 0
-104 -121 0
-121 -174 0
-104 -174 0
-176 -241 0
-100 -176 0
-176 -179 0
-82 -176 0
-100 -241 0
-179 -241 0
-82 -241 0
-100 -179 0
-82 -100 0
-82 -179 0
-166 -205 0
-47 -205 0
-137 -205 0
-190 -205 0
-47 -166 0
-137 -166 0
-166 -190 0
-47 -137 0
-47 -190 0
-137 -190 0
-90 -129 0
-56 -90 0
-90 -140 0
-53 -90 0
-50 -90 0
-90 -117 0
-90 -136 0
-56 -129 0
-129 -140 0
-53 -129 0
-50 -129 0
-117 -129 0
-129 -136 0
-56 -140 0
-53 -56 0
-50 -56 0
-56 -117 0
-56 -136 0
-53 -140 0
-50 -140 0
-117 -140 0
-136 -140 0
-50 -53 0
-53 -117 0
-53 -136 0
-50 -117 0
-50 -136 0
-117 -136 0
-73 -76 0
-76 -154 0
-76 -210 0
-76 -115 0
-76 -120 0
-76 -212 0
-76 -185 0
-73 -154 0
-73 -210 0
-73 -115 0
-73 -120 0
-73 -212 0
-73 -185 0
-154 -210 0
-115 -154 0
-120 -154 0
-154 -212 0
-154 -185 0
-115 -210 0
-120 -210 0
-210 -212 0
-185 -210 0
-115 -120 0
-115 -212 0
-115 -185 0
-120 -212 0
-120 -185 0
-185 -212 0
-94 -244 0
-178 -244 0
-97 -244 0
-244 -245 0
-244 -246 0
-244 -247 0
-70 -244 0
-94 -178 0
-94 -97 0
-94 -245 0
-94 -246 0
-94 -247 0
-70 -94 0
-97 -178 0
-178 -245 0
-178 -246 0
-178 -247 0
-70 -178 0
-97 -245 0
-97 -246 0
-97 -247 0
-70 -97 0
-245 -246 0
-245 -247 0
-70 -245 0
-246 -247 0
-70 -246 0
-70 -247 0
-34 -78 0
-34 -87 0
-34 -248 0
-34 -164 0
-34 -93 0
-78 -87 0
-78 -248 0
-78 -164 0
-78 -93 0
-87 -248 0
-87 -164 0
-87 -93 0
-164 -248 0
-93 -248 0
-93 -164 0
-105 -220 0
-98 -220 0
-220 -249 0
-45 -220 0
-36 -220 0
-98 -105 0
-105 -249 0
-45 -105 0
-36 -105 0
-98 -249 0
-45 -98 0
-36 -98 0
-45 -249 0
-36 -249 0
-36 -45 0
-192 -194 0
-192 -250 0
-113 -192 0
-110 -192 0
-60 -192 0
-149 -192 0
-171 -192 0
-194 -250 0
-113 -194 0
-110 -194 0
-60 -194 0
-149 -194 0
-171 -194 0
-113 -250 0
-110 -250 0
-60 -250 0
-149 -250 0
-171 -250 0
-110 -113 0
-60 -113 0
-113 -149 0
-113 -171 0
-60 -110 0
-110 -149 0
-110 -171 0
-60 -149 0
-60 -171 0
-149 -171 0
-42 -177 0
-96 -177 0
-175 -177 0
-31 -177 0
-177 -206 0
-68 -177 0
-29 -177 0
-42 -96 0
-42 -175 0
-31 -42 0
-42 -206 0
-42 -68 0
-29 -42 0
-96 -175 0
-31 -96 0
-96 -206 0
-68 -96 0
-29 -96 0
-31 -175 0
-175 -206 0
-68 -175 0
-29 -175 0
-31 -206 0
-31 -68 0
-29 -31 0
-68 -206 0
-29 -206 0
-29 -68 0
-26 -209 0
-209 -222 0
-22 -209 0
-18 -209 0
-209 -229 0
-23 -209 0
-12 -209 0
-26 -222 0
-22 -26 0
-18 -26 0
-26 -229 0
-23 -26 0
-12 -26 0
-22 -222 0
-18 -222 0
-222 -229 0
-23 -222 0
-12 -222 0
-18 -22 0
-22 -229 0
-22 -23 0
-12 -22 0
-18 -229 0
-18 -23 0
-12 -18 0
-23 -229 0
-12 -229 0
-12 -23 0
-76 -90 0
-90 -244 0
-34 -90 0
-90 -220 0
-90 -192 0
-90 -177 0
-90 -209 0
-76 -244 0
-34 -76 0
-76 -220 0
-76 -192 0
-76 -177 0
-76 -209 0
-34 -244 0
-220 -244 0
-192 -244 0
-177 -244 0
-209 -244 0
-34 -220 0
-34 -192 0
-34 -177 0
-34 -209 0
-192 -220 0
-177 -220 0
-209 -220 0
-177 -192 0
-192 -209 0
-177 -209 0
-73 -129 0
-94 -129 0
-78 -129 0
-105 -129 0
-129 -194 0
-42 -129 0
-26 -129 0
-73 -94 0
-73 -78 0
-73 -105 0
-73 -194 0
-42 -73 0
-26 -73 0
-78 -94 0
-94 -105 0
-94 -194 0
-42 -94 0
-26 -94 0
-78 -105 0
-78 -194 0
-42 -78 0
-26 -78 0
-105 -194 0
-42 -105 0
-26 -105 0
-42 -194 0
-26 -194 0
-26 -42 0
-56 -154 0
-56 -178 0
-56 -87 0
-56 -98 0
-56 -250 0
-56 -96 0
-56 -222 0
-154 -178 0
-87 -154 0
-98 -154 0
-154 -250 0
-96 -154 0
-154 -222 0
-87 -178 0
-98 -178 0
-178 -250 0
-96 -178 0
-178 -222 0
-87 -98 0
-87 -250 0
-87 -96 0
-87 -222 0
-98 -250 0
-96 -98 0
-98 -222 0
-96 -250 0
-222 -250 0
-96 -222 0
-140 -210 0
-97 -140 0
-140 -248 0
-140 -249 0
-113 -140 0
-140 -175 0
-22 -140 0
-97 -210 0
-210 -248 0
-210 -249 0
-113 -210 0
-175 -210 0
-22 -210 0
-97 -248 0
-97 -249 0
-97 -113 0
-97 -175 0
-22 -97 0
-248 -249 0
-113 -248 0
-175 -248 0
-22 -248 0
-113 -249 0
-175 -249 0
-22 -249 0
-113 -175 0
-22 -113 0
-22 -175 0
-53 -115 0
-53 -245 0
-53 -164 0
-45 -53 0
-53 -110 0
-31 -53 0
-18 -53 0
-115 -245 0
-115 -164 0
-45 -115 0
-110 -115 0
-31 -115 0
-18 -115 0
-164 -245 0
-45 -245 0
-110 -245 0
-31 -245 0
-18 -245 0
-45 -164 0
-110 -164 0
-31 -164 0
-18 -164 0
-45 -110 0
-31 -45 0
-18 -45 0
-31 -110 0
-18 -110 0
-18 -31 0
-50 -120 0
-50 -246 0
-50 -93 0
-36 -50 0
-50 -60 0
-50 -206 0
-50 -229 0
-120 -246 0
-93 -120 0
-36 -120 0
-60 -120 0
-120 -206 0
-120 -229 0
-93 -246 0
-36 -246 0
-60 -246 0
-206 -246 0
-229 -246 0
-36 -93 0
-60 -93 0
-93 -206 0
-93 -229 0
-36 -60 0
-36 -206 0
-36 -229 0
-60 -206 0
-60 -229 0
-206 -229 0
-117 -212 0
-117 -247 0
-117 -149 0
-68 -117 0
-23 -117 0
-212 -247 0
-149 -212 0
-68 -212 0
-23 -212 0
-149 -247 0
-68 -247 0
-23 -247 0
-68 -149 0
-23 -149 0
-23 -68 0
-136 -185 0
-70 -136 0
-136 -171 0
-29 -136 0
-12 -136 0
-70 -185 0
-171 -185 0
-29 -185 0
-12 -185 0
-70 -171 0
-29 -70 0
-12 -70 0
-29 -171 0
-12 -171 0
-12 -29 0
-143 -252 0
-143 -214 0
-142 -143 0
-214 -252 0
-142 -252 0
-142 -214 0
-253 -254 0
-189 -253 0
-152 -253 0
-189 -254 0
-152 -254 0
-152 -189 0
-77 -187 0
-130 -193 0
-57 -193 0
-57 -130 0
-95 -211 0
-184 -211 0
-95 -184 0
-193 -211 0
-143 -253 0
-130 -143 0
-95 -143 0
-130 -253 0
-95 -253 0
-95 -130 0
-252 -254 0
-57 -252 0
-184 -252 0
-57 -254 0
-184 -254 0
-57 -184 0
-189 -214 0
-77 -214 0
-77 -189 0
-142 -152 0
-142 -187 0
-152 -187 0
-64 -111 0
-64 -182 0
-111 -182 0
-255 -256 0
-125 -255 0
-44 -255 0
-125 -256 0
-44 -256 0
-44 -125 0
-74 -133 0
-71 -133 0
-27 -133 0
-71 -74 0
-27 -74 0
-27 -71 0
-66 -161 0
-161 -257 0
-62 -161 0
-66 -257 0
-62 -66 0
-62 -257 0
-144 -213 0
-213 -251 0
-141 -213 0
-144 -251 0
-141 -144 0
-141 -251 0
-64 -255 0
-64 -133 0
-64 -161 0
-64 -213 0
-133 -255 0
-161 -255 0
-213 -255 0
-133 -161 0
-133 -213 0
-161 -213 0
-111 -256 0
-74 -111 0
-66 -111 0
-111 -144 0
-74 -256 0
-66 -256 0
-144 -256 0
-66 -74 0
-74 -144 0
-66 -144 0
-125 -182 0
-71 -182 0
-182 -257 0
-182 -251 0
-71 -125 0
-125 -257 0
-125 -251 0
-71 -257 0
-71 -251 0
-251 -257 0
-62 -141 0
-27 -44 0
-102 -231 0
-69 -172 0
-43 -258 0
-20 -226 0
-102 -172 0
-20 -258 0
-43 -226 0
-69 -231 0
-92 -218 0
-92 -260 0
-218 -260 0
-108 -114 0
-59 -114 0
-114 -147 0
-54 -114 0
-114 -170 0
-41 -114 0
-59 -108 0
-108 -147 0
-54 -108 0
-108 -170 0
-41 -108 0
-59 -147 0
-54 -59 0
-59 -170 0
-41 -59 0
-54 -147 0
-147 -170 0
-41 -147 0
-54 -170 0
-41 -54 0
-41 -170 0
-30 -33 0
-33 -207 0
-33 -67 0
-33 -261 0
-28 -33 0
-25 -33 0
-30 -207 0
-30 -67 0
-30 -261 0
-28 -30 0
-25 -30 0
-67 -207 0
-207 -261 0
-28 -207 0
-25 -207 0
-67 -261 0
-28 -67 0
-25 -67 0
-28 -261 0
-25 -261 0
-25 -28 0
-16 -21 0
-21 -230 0
-14 -21 0
-13 -21 0
-11 -21 0
-21 -191 0
-16 -230 0
-14 -16 0
-13 -16 0
-11 -16 0
-16 -191 0
-14 -230 0
-13 -230 0
-11 -230 0
-191 -230 0
-13 -14 0
-11 -14 0
-14 -191 0
-11 -13 0
-13 -191 0
-11 -191 0
-195 -243 0
-195 -197 0
-122 -195 0
-195 -262 0
-195 -263 0
-195 -198 0
-197 -243 0
-122 -243 0
-243 -262 0
-243 -263 0
-198 -243 0
-122 -197 0
-197 -262 0
-197 -263 0
-197 -198 0
-122 -262 0
-122 -263 0
-122 -198 0
-262 -263 0
-198 -262 0
-198 -263 0
-38 -81 0
-38 -202 0
-38 -103 0
-38 -208 0
-38 -264 0
-38 -265 0
-81 -202 0
-81 -103 0
-81 -208 0
-81 -264 0
-81 -265 0
-103 -202 0
-202 -208 0
-202 -264 0
-202 -265 0
-103 -208 0
-103 -264 0
-103 -265 0
-208 -264 0
-208 -265 0
-264 -265 0
-151 -216 0
-216 -223 0
-173 -216 0
-216 -232 0
-216 -233 0
-216 -266 0
-151 -223 0
-151 -173 0
-151 -232 0
-151 -233 0
-151 -266 0
-173 -223 0
-223 -232 0
-223 -233 0
-223 -266 0
-173 -232 0
-173 -233 0
-173 -266 0
-232 -233 0
-232 -266 0
-233 -266 0
-33 -114 0
-21 -114 0
-114 -195 0
-38 -114 0
-114 -216 0
-21 -33 0
-33 -195 0
-33 -38 0
-33 -216 0
-21 -195 0
-21 -38 0
-21 -216 0
-38 -195 0
-195 -216 0
-38 -216 0
-30 -108 0
-16 -108 0
-108 -243 0
-81 -108 0
-108 -151 0
-16 -30 0
-30 -243 0
-30 -81 0
-30 -151 0
-16 -243 0
-16 -81 0
-16 -151 0
-81 -243 0
-151 -243 0
-81 -151 0
-59 -92 0
-92 -207 0
-92 -230 0
-92 -197 0
-92 -202 0
-92 -223 0
-59 -207 0
-59 -230 0
-59 -197 0
-59 -202 0
-59 -223 0
-207 -230 0
-197 -207 0
-202 -207 0
-207 -223 0
-197 -230 0
-202 -230 0
-223 -230 0
-197 -202 0
-197 -223 0
-202 -223 0
-147 -218 0
-67 -218 0
-14 -218 0
-122 -218 0
-103 -218 0
-173 -218 0
-67 -147 0
-14 -147 0
-122 -147 0
-103 -147 0
-147 -173 0
-14 -67 0
-67 -122 0
-67 -103 0
-67 -173 0
-14 -122 0
-14 -103 0
-14 -173 0
-103 -122 0
-122 -173 0
-103 -173 0
-54 -260 0
-260 -261 0
-13 -260 0
-260 -262 0
-208 -260 0
-232 -260 0
-54 -261 0
-13 -54 0
-54 -262 0
-54 -208 0
-54 -232 0
-13 -261 0
-261 -262 0
-208 -261 0
-232 -261 0
-13 -262 0
-13 -208 0
-13 -232 0
-208 -262 0
-232 -262 0
-208 -232 0
-28 -170 0
-11 -170 0
-170 -263 0
-170 -264 0
-170 -233 0
-11 -28 0
-28 -263 0
-28 -264 0
-28 -233 0
-11 -263 0
-11 -264 0
-11 -233 0
-263 -264 0
-233 -263 0
-233 -264 0
-25 -41 0
-41 -191 0
-41 -198 0
-41 -265 0
-41 -266 0
-25 -191 0
-25 -198 0
-25 -265 0
-25 -266 0
-191 -198 0
-191 -265 0
-191 -266 0
-198 -265 0
-198 -266 0
-265 -266 0
-138 -267 0
-138 -203 0
-84 -138 0
-203 -267 0
-84 -267 0
-84 -203 0
-126 -162 0
-126 -224 0
-126 -157 0
-162 -224 0
-157 -162 0
-157 -224 0
-52 -55 0
-49 -55 0
-40 -55 0
-49 -52 0
-40 -52 0
-40 -49 0
-116 -155 0
-119 -155 0
-58 -155 0
-116 -119 0
-58 -116 0
-58 -119 0
-9 -35 0
-35 -88 0
-35 -165 0
-9 -88 0
-9 -165 0
-88 -165 0
-219 -259 0
-99 -219 0
-46 -219 0
-99 -259 0
-46 -259 0
-46 -99 0
-126 -138 0
-35 -138 0
-138 -219 0
-35 -126 0
-126 -219 0
-35 -219 0
-162 -267 0
-9 -267 0
-259 -267 0
-9 -162 0
-162 -259 0
-9 -259 0
-55 -155 0
-55 -88 0
-55 -99 0
-88 -155 0
-99 -155 0
-88 -99 0
-52 -116 0
-52 -165 0
-46 -52 0
-116 -165 0
-46 -116 0
-46 -165 0
-203 -224 0
-49 -203 0
-119 -203 0
-49 -224 0
-119 -224 0
-49 -119 0
-84 -157 0
-40 -84 0
-58 -84 0
-40 -157 0
-58 -157 0
-40 -58 0
-123 -124 0
-124 -199 0
-107 -124 0
-124 -134 0
-8 -124 0
-75 -124 0
-123 -199 0
-107 -123 0
-123 -134 0
-8 -123 0
-75 -123 0
-107 -199 0
-134 -199 0
-8 -199 0
-75 -199 0
-107 -134 0
-8 -107 0
-75 -107 0
-8 -134 0
-75 -134 0
-8 -75 0
-72 -145 0
-72 -163 0
-72 -168 0
-72 -180 0
-72 -183 0
-72 -186 0
-145 -163 0
-145 -168 0
-145 -180 0
-145 -183 0
-145 -186 0
-163 -168 0
-163 -180 0
-163 -183 0
-163 -186 0
-168 -180 0
-168 -183 0
-168 -186 0
-180 -183 0
-180 -186 0
-183 -186 0
-7 -91 0
-7 -132 0
-7 -86 0
-6 -7 0
-7 -160 0
-7 -65 0
-91 -132 0
-86 -91 0
-6 -91 0
-91 -160 0
-65 -91 0
-86 -132 0
-6 -132 0
-132 -160 0
-65 -132 0
-6 -86 0
-86 -160 0
-65 -86 0
-6 -160 0
-6 -65 0
-65 -160 0
-4 -5 0
-5 -61 0
-3 -5 0
-5 -39 0
-4 -61 0
-3 -4 0
-4 -39 0
-3 -61 0
-39 -61 0
-3 -39 0
-2 -51 0
-2 -48 0
-2 -188 0
-2 -153 0
-48 -51 0
-51 -188 0
-51 -153 0
-48 -188 0
-48 -153 0
-153 -188 0
-131 -201 0
-1 -131 0
-131 -204 0
-127 -131 0
-1 -201 0
-201 -204 0
-127 -201 0
-1 -204 0
-1 -127 0
-127 -204 0
-215 -221 0
-158 -215 0
-215 -225 0
-215 -228 0
-158 -221 0
-221 -225 0
-221 -228 0
-158 -225 0
-158 -228 0
-225 -228 0
-72 -124 0
-7 -124 0
-5 -124 0
-2 -124 0
-124 -131 0
-124 -215 0
-7 -72 0
-5 -72 0
-2 -72 0
-72 -131 0
-72 -215 0
-5 -7 0
-2 -7 0
-7 -131 0
-7 -215 0
-2 -5 0
-5 -131 0
-5 -215 0
-2 -131 0
-2 -215 0
-131 -215 0
-123 -145 0
-91 -123 0
-4 -123 0
-51 -123 0
-123 -201 0
-123 -221 0
-91 -145 0
-4 -145 0
-51 -145 0
-145 -201 0
-145 -221 0
-4 -91 0
-51 -91 0
-91 -201 0
-91 -221 0
-4 -51 0
-4 -201 0
-4 -221 0
-51 -201 0
-51 -221 0
-201 -221 0
-163 -199 0
-132 -199 0
-61 -199 0
-48 -199 0
-1 -199 0
-158 -199 0
-132 -163 0
-61 -163 0
-48 -163 0
-1 -163 0
-158 -163 0
-61 -132 0
-48 -132 0
-1 -132 0
-132 -158 0
-48 -61 0
-1 -61 0
-61 -158 0
-1 -48 0
-48 -158 0
-1 -158 0
-107 -168 0
-86 -107 0
-107 -204 0
-107 -225 0
-86 -168 0
-168 -204 0
-168 -225 0
-86 -204 0
-86 -225 0
-204 -225 0
-134 -180 0
-6 -134 0
-127 -134 0
-134 -228 0
-6 -180 0
-127 -180 0
-180 -228 0
-6 -127 0
-6 -228 0
-127 -228 0
-8 -183 0
-8 -160 0
-3 -8 0
-8 -188 0
-160 -183 0
-3 -183 0
-183 -188 0
-3 -160 0
-160 -188 0
-3 -188 0
-75 -186 0
-65 -75 0
-39 -75 0
-75 -153 0
-65 -186 0
-39 -186 0
-153 -186 0
-39 -65 0
-65 -153 0
-39 -153 0
-128 -139 0
-139 -234 0
-79 -139 0
-89 -139 0
-139 -146 0
-128 -234 0
-79 -128 0
-89 -128 0
-128 -146 0
-79 -234 0
-89 -234 0
-146 -234 0
-79 -89 0
-79 -146 0
-89 -146 0
-109 -148 0
-24 -148 0
-17 -148 0
-24 -109 0
-17 -109 0
-17 -24 0
-90 -129 0
-56 -90 0
-76 -90 0
-73 -90 0
-90 -154 0
-90 -244 0
-90 -94 0
-90 -178 0
-56 -129 0
-76 -129 0
-73 -129 0
-129 -154 0
-129 -244 0
-94 -129 0
-129 -178 0
-56 -76 0
-56 -73 0
-56 -154 0
-56 -244 0
-56 -94 0
-56 -178 0
-73 -76 0
-76 -154 0
-76 -244 0
-76 -94 0
-76 -178 0
-73 -154 0
-73 -244 0
-73 -94 0
-73 -178 0
-154 -244 0
-94 -154 0
-154 -178 0
-94 -244 0
-178 -244 0
-94 -178 0
-64 -111 0
-64 -182 0
-111 -182 0
-102 -172 0
-138 -267 0
-126 -138 0
-138 -162 0
-126 -267 0
-162 -267 0
-126 -162 0
-123 -124 0
-124 -199 0
-72 -124 0
-124 -145 0
-124 -163 0
-7 -124 0
-91 -124 0
-124 -132 0
-123 -199 0
-72 -123 0
-123 -145 0
-123 -163 0
-7 -123 0
-91 -123 0
-123 -132 0
-72 -199 0
-145 -199 0
-163 -199 0
-7 -199 0
-91 -199 0
-132 -199 0
-72 -145 0
-72 -163 0
-7 -72 0
-72 -91 0
-72 -132 0
-145 -163 0
-7 -145 0
-91 -145 0
-132 -145 0
-7 -163 0
-91 -163 0
-132 -163 0
-7 -91 0
-7 -132 0
-91 -132 0
-101 -118 0
-118 -167 0
-118 -169 0
-101 -167 0
-101 -169 0
-167 -169 0
-53 -140 0
-50 -140 0
-140 -210 0
-115 -140 0
-120 -140 0
-97 -140 0
-140 -245 0
-140 -246 0
-50 -53 0
-53 -210 0
-53 -115 0
-53 -120 0
-53 -97 0
-53 -245 0
-53 -246 0
-50 -210 0
-50 -115 0
-50 -120 0
-50 -97 0
-50 -245 0
-50 -246 0
-115 -210 0
-120 -210 0
-97 -210 0
-210 -245 0
-210 -246 0
-115 -120 0
-97 -115 0
-115 -245 0
-115 -246 0
-97 -120 0
-120 -245 0
-120 -246 0
-97 -245 0
-97 -246 0
-245 -246 0
-143 -252 0
-143 -253 0
-143 -254 0
-252 -253 0
-252 -254 0
-253 -254 0
-92 -218 0
-92 -260 0
-218 -260 0
-107 -134 0
-107 -168 0
-107 -180 0
-86 -107 0
-6 -107 0
-134 -168 0
-134 -180 0
-86 -134 0
-6 -134 0
-168 -180 0
-86 -168 0
-6 -168 0
-86 -180 0
-6 -180 0
-6 -86 0
-176 -205 0
-176 -241 0
-166 -176 0
-205 -241 0
-166 -205 0
-166 -241 0
-117 -136 0
-117 -212 0
-117 -185 0
-117 -247 0
-70 -117 0
-136 -212 0
-136 -185 0
-136 -247 0
-70 -136 0
-185 -212 0
-212 -247 0
-70 -212 0
-185 -247 0
-70 -185 0
-70 -247 0
-142 -214 0
-189 -214 0
-152 -214 0
-142 -189 0
-142 -152 0
-152 -189 0
-69 -231 0
-84 -203 0
-203 -224 0
-157 -203 0
-84 -224 0
-84 -157 0
-157 -224 0
-8 -75 0
-8 -183 0
-8 -186 0
-8 -160 0
-8 -65 0
-75 -183 0
-75 -186 0
-75 -160 0
-65 -75 0
-183 -186 0
-160 -183 0
-65 -183 0
-160 -186 0
-65 -186 0
-65 -160 0
-235 -236 0
-63 -235 0
-85 -235 0
-83 -235 0
-32 -235 0
-235 -240 0
-156 -235 0
-19 -235 0
-63 -236 0
-85 -236 0
-83 -236 0
-32 -236 0
-236 -240 0
-156 -236 0
-19 -236 0
-63 -85 0
-63 -83 0
-32 -63 0
-63 -240 0
-63 -156 0
-19 -63 0
-83 -85 0
-32 -85 0
-85 -240 0
-85 -156 0
-19 -85 0
-32 -83 0
-83 -240 0
-83 -156 0
-19 -83 0
-32 -240 0
-32 -156 0
-19 -32 0
-156 -240 0
-19 -240 0
-19 -156 0
-196 -242 0
-37 -196 0
-80 -196 0
-196 -217 0
-150 -196 0
-37 -242 0
-80 -242 0
-217 -242 0
-150 -242 0
-37 -80 0
-37 -217 0
-37 -150 0
-80 -217 0
-80 -150 0
-150 -217 0
-34 -78 0
-34 -87 0
-34 -220 0
-34 -105 0
-34 -98 0
-78 -87 0
-78 -220 0
-78 -105 0
-78 -98 0
-87 -220 0
-87 -105 0
-87 -98 0
-105 -220 0
-98 -220 0
-98 -105 0
-255 -256 0
-125 -255 0
-133 -255 0
-74 -255 0
-71 -255 0
-125 -256 0
-133 -256 0
-74 -256 0
-71 -256 0
-125 -133 0
-74 -125 0
-71 -125 0
-74 -133 0
-71 -133 0
-71 -74 0
-108 -114 0
-33 -114 0
-30 -114 0
-21 -114 0
-16 -114 0
-33 -108 0
-30 -108 0
-21 -108 0
-16 -108 0
-30 -33 0
-21 -33 0
-16 -33 0
-21 -30 0
-16 -30 0
-16 -21 0
-4 -5 0
-5 -61 0
-2 -5 0
-5 -51 0
-5 -48 0
-4 -61 0
-2 -4 0
-4 -51 0
-4 -48 0
-2 -61 0
-51 -61 0
-48 -61 0
-2 -51 0
-2 -48 0
-48 -51 0
-112 -181 0
-112 -238 0
-112 -159 0
-112 -227 0
-15 -112 0
-181 -238 0
-159 -181 0
-181 -227 0
-15 -181 0
-159 -238 0
-227 -238 0
-15 -238 0
-159 -227 0
-15 -159 0
-15 -227 0
-104 -121 0
-121 -174 0
-104 -174 0
-164 -248 0
-93 -248 0
-248 -249 0
-45 -248 0
-36 -248 0
-93 -164 0
-164 -249 0
-45 -164 0
-36 -164 0
-93 -249 0
-45 -93 0
-36 -93 0
-45 -249 0
-36 -249 0
-36 -45 0
-43 -258 0
-59 -147 0
-54 -59 0
-59 -207 0
-59 -67 0
-59 -261 0
-59 -230 0
-14 -59 0
-13 -59 0
-54 -147 0
-147 -207 0
-67 -147 0
-147 -261 0
-147 -230 0
-14 -147 0
-13 -147 0
-54 -207 0
-54 -67 0
-54 -261 0
-54 -230 0
-14 -54 0
-13 -54 0
-67 -207 0
-207 -261 0
-207 -230 0
-14 -207 0
-13 -207 0
-67 -261 0
-67 -230 0
-14 -67 0
-13 -67 0
-230 -261 0
-14 -261 0
-13 -261 0
-14 -230 0
-13 -230 0
-13 -14 0
-52 -55 0
-55 -155 0
-55 -116 0
-52 -155 0
-52 -116 0
-116 -155 0
-237 -239 0
-10 -237 0
-10 -239 0
-47 -100 0
-100 -179 0
-100 -137 0
-82 -100 0
-100 -190 0
-47 -179 0
-47 -137 0
-47 -82 0
-47 -190 0
-137 -179 0
-82 -179 0
-179 -190 0
-82 -137 0
-137 -190 0
-82 -190 0
-77 -187 0
-27 -44 0
-41 -170 0
-28 -170 0
-25 -170 0
-11 -170 0
-170 -191 0
-28 -41 0
-25 -41 0
-11 -41 0
-41 -191 0
-25 -28 0
-11 -28 0
-28 -191 0
-11 -25 0
-25 -191 0
-11 -191 0
-40 -49 0
-49 -119 0
-49 -58 0
-40 -119 0
-40 -58 0
-58 -119 0
-3 -39 0
-3 -188 0
-3 -153 0
-39 -188 0
-39 -153 0
-153 -188 0
-106 -200 0
-135 -200 0
-106 -135 0
-192 -194 0
-192 -250 0
-177 -192 0
-42 -192 0
-96 -192 0
-192 -209 0
-26 -192 0
-192 -222 0
-194 -250 0
-177 -194 0
-42 -194 0
-96 -194 0
-194 -209 0
-26 -194 0
-194 -222 0
-177 -250 0
-42 -250 0
-96 -250 0
-209 -250 0
-26 -250 0
-222 -250 0
-42 -177 0
-96 -177 0
-177 -209 0
-26 -177 0
-177 -222 0
-42 -96 0
-42 -209 0
-26 -42 0
-42 -222 0
-96 -209 0
-26 -96 0
-96 -222 0
-26 -209 0
-209 -222 0
-26 -222 0
-193 -211 0
-66 -161 0
-161 -257 0
-161 -213 0
-144 -161 0
-161 -251 0
-66 -257 0
-66 -213 0
-66 -144 0
-66 -251 0
-213 -257 0
-144 -257 0
-251 -257 0
-144 -213 0
-213 -251 0
-144 -251 0
-195 -243 0
-38 -195 0
-81 -195 0
-195 -216 0
-151 -195 0
-38 -243 0
-81 -243 0
-216 -243 0
-151 -243 0
-38 -81 0
-38 -216 0
-38 -151 0
-81 -216 0
-81 -151 0
-151 -216 0
-9 -35 0
-35 -219 0
-35 -259 0
-9 -219 0
-9 -259 0
-219 -259 0
-131 -201 0
-1 -131 0
-131 -215 0
-131 -221 0
-131 -158 0
-1 -201 0
-201 -215 0
-201 -221 0
-158 -201 0
-1 -215 0
-1 -221 0
-1 -158 0
-215 -221 0
-158 -215 0
-158 -221 0
-110 -113 0
-60 -113 0
-113 -175 0
-31 -113 0
-113 -206 0
-22 -113 0
-18 -113 0
-113 -229 0
-60 -110 0
-110 -175 0
-31 -110 0
-110 -206 0
-22 -110 0
-18 -110 0
-110 -229 0
-60 -175 0
-31 -60 0
-60 -206 0
-22 -60 0
-18 -60 0
-60 -229 0
-31 -175 0
-175 -206 0
-22 -175 0
-18 -175 0
-175 -229 0
-31 -206 0
-22 -31 0
-18 -31 0
-31 -229 0
-22 -206 0
-18 -206 0
-206 -229 0
-18 -22 0
-22 -229 0
-18 -229 0
-57 -130 0
-95 -130 0
-130 -184 0
-57 -95 0
-57 -184 0
-95 -184 0
-62 -141 0
-20 -226 0
-122 -197 0
-197 -262 0
-197 -202 0
-103 -197 0
-197 -208 0
-197 -223 0
-173 -197 0
-197 -232 0
-122 -262 0
-122 -202 0
-103 -122 0
-122 -208 0
-122 -223 0
-122 -173 0
-122 -232 0
-202 -262 0
-103 -262 0
-208 -262 0
-223 -262 0
-173 -262 0
-232 -262 0
-103 -202 0
-202 -208 0
-202 -223 0
-173 -202 0
-202 -232 0
-103 -208 0
-103 -223 0
-103 -173 0
-103 -232 0
-208 -223 0
-173 -208 0
-208 -232 0
-173 -223 0
-223 -232 0
-173 -232 0
-88 -165 0
-88 -99 0
-46 -88 0
-99 -165 0
-46 -165 0
-46 -99 0
-127 -204 0
-204 -225 0
-204 -228 0
-127 -225 0
-127 -228 0
-225 -228 0
-149 -171 0
-68 -149 0
-29 -149 0
-23 -149 0
-12 -149 0
-68 -171 0
-29 -171 0
-23 -171 0
-12 -171 0
-29 -68 0
-23 -68 0
-12 -68 0
-23 -29 0
-12 -29 0
-12 -23 0
-198 -263 0
-263 -264 0
-263 -265 0
-233 -263 0
-263 -266 0
-198 -264 0
-198 -265 0
-198 -233 0
-198 -266 0
-264 -265 0
-233 -264 0
-264 -266 0
-233 -265 0
-265 -266 0
-233 -266 0
